p cnf 20 16
-5 20 -7 15 0
20 12 0
-16 -6 -14 0
20 -15 -6 -10 0
-7 -6 0
10 13 0
17 15 -4 2 -7 5 20 -19 13 12 1 9 -18 -6 -8 11 -14 -16 -10 3 0
-20 -11 0
7 -8 15 6 0
15 -3 -5 -10 2 17 13 1 -4 -8 7 6 -14 20 11 -16 -12 -9 18 0
-2 -7 -5 0
18 -1 -15 8 11 9 -3 -14 -4 -19 20 5 17 12 -16 6 0
-9 -5 11 -15 19 8 -20 3 1 -6 14 4 -13 -17 -12 -2 18 -10 0
9 -13 17 -12 -15 -10 -3 18 0
-14 6 -10 9 -1 -17 16 0
1 -19 20 17 0
